53950
49, 26, 55, 28, 6, 3, 43, 13, 5, 35, 24, 50, 20, 37, 7, 40, 51, 41, 32, 8, 38, 44, 19, 48, 25, 27, 1, 42, 52, 39, 10, 21, 4, 18, 16, 15, 23, 34, 46, 45, 12, 47, 30, 33, 31, 11, 17, 54, 9, 36, 22, 29, 2, 53, 14
